35 35
22
3 3 28 5
3 4 25 31
3 5 32 0
3 6 0 29
3 7 0 0
3 8 32 27
3 9 32 18
3 10 28 8
3 12 25 19
3 19 25 0
3 22 0 7
4 3 21 20
4 4 17 31
4 5 28 0
4 6 31 12
4 7 31 5
4 8 17 0
4 12 21 23
4 17 28 18
4 20 21 0
4 23 17 8
14 35 3 0
